% Escenario 9:
% - 4 plantas
% - 4 clientes
% - 3 días
% Aumenta la complejidad: distintos costos, más clientes y la misma duración n=3.

np = 4;
nc = 4;
nd = 3;

nombrePlanta = ["P1", "P2", "P3", "P4"];
nombreCliente = ["A", "B", "C", "D"];

costo = [40.0, 25.0, 25.0, 55.0];
cap = [600, 400, 400, 300];
pago = [100.0, 105.0, 110.0, 120.0];

dem = array2d(1..nc, 1..nd, [
  100, 110,  90,
  150,  98, 340,
  200, 180, 150,
  50,   50,  50
]);

G = 0.50;

umbralAlto = [0.8, 0.8, 0.75, 0.9];
maxDiasAlto = [1, 1, 2, 1];
